&GLOBAL
  PROJECT test
  RUN_TYPE ENERGY
  PRINT_LEVEL MEDIUM
&END GLOBAL

&FORCE_EVAL
  METHOD Quickstep
  &DFT
    BASIS_SET_FILE_NAME BASIS_MOLOPT
    POTENTIAL_FILE_NAME POTENTIAL

    &MGRID
      NGRIDS 4
      CUTOFF 280
      REL_CUTOFF 40
    &END MGRID
    &QS
      METHOD GPW
      EPS_DEFAULT 1.0E-10
    &END QS

    &SCF
      &OUTER_SCF
        EPS_SCF 1.0E-6
        MAX_SCF 10
      &END OUTER_SCF

      SCF_GUESS ATOMIC
      EPS_SCF 1.0E-6
      ADDED_MOS 50
      MAX_SCF 50

      &MIXING
        METHOD BROYDEN_MIXING
        ALPHA 0.3
        NBUFFER 15
      &END MIXING

      &SMEAR
        ELECTRONIC_TEMPERATURE 300.0
        METHOD FERMI_DIRAC
      &END SMEAR

    ! &OT
    !   MINIMIZER DIIS
    !   PRECONDITIONER FULL_KINETIC
    !   ENERGY_GAP 0.05
    ! &END OT

    &END SCF

    &XC
      &XC_FUNCTIONAL PBE
      &END XC_FUNCTIONAL
    &END XC

  &END DFT

  &SUBSYS
    &KIND C
      ELEMENT C
      BASIS_SET DZVP-MOLOPT-SR-GTH
      POTENTIAL GTH-PBE
    &END KIND
    &KIND H
      ELEMENT H
      BASIS_SET DZVP-MOLOPT-SR-GTH
      POTENTIAL GTH-PBE
    &END KIND

    &CELL
      SYMMETRY ORTHORHOMBIC
      A 15.00000  0.00000  0.00000
      B  0.00000 15.00000  0.00000
      C  0.00000  0.00000 15.00000
      PERIODIC NONE
    &END CELL

    &TOPOLOGY
      COORD_FILE_NAME benzene.xyz
      COORDINATE XYZ
      CONNECTIVITY OFF
    &END TOPOLOGY
  &END SUBSYS

&END FORCE_EVAL

